SCIP version 5.0.0 [precision: 8 byte] [memory: block] [mode: optimized] [LP solver: NONE] [GitHash: 3bbd232]
Copyright (C) 2002-2017 Konrad-Zuse-Zentrum fuer Informationstechnik Berlin (ZIB)

External codes: 
  Readline EditLine w  GNU library for command line editing (gnu.org/s/readline)
  CppAD 20160000.1     Algorithmic Differentiation of C++ algorithms developed by B. Bell (www.coin-or.org/CppAD)
  ZLIB 1.2.5           General purpose compression library by J. Gailly and M. Adler (zlib.net)
  GMP 6.1.2            GNU Multiple Precision Arithmetic Library developed by T. Granlund (gmplib.org)

user parameter file <scip.set> not found - using default parameters

read problem <../../Split_data/output/biodeg/8/1_sample_biodeg.logreg>
============

File name	:	../../Split_data/output/biodeg/8/1_sample_biodeg.logreg
Problem name 	:	1_sample_biodeg
Number of data	:	844
Number of var	:	41
The given data has linear dependence
1 sets of column vector are linearly dependent:
{ 19}, 

[dim=1] time: 0.033891
[dim=2] time: 0.063334
[dim=3] time: 0.101148
[dim=4] time: 0.134904
[dim=5] time: 0.163399
[dim=6] time: 0.197018
[dim=7] time: 0.225188
[dim=8] time: 0.250839
[dim=9] time: 0.277014
[dim=10] time: 0.303479
[dim=11] time: 0.331709
[dim=12] time: 0.357007
[dim=13] time: 0.372994
[dim=14] time: 0.389394
[dim=15] time: 0.4061
[dim=16] time: 0.423281
[dim=17] time: 0.43931
[dim=18] time: 0.455106
[dim=19] time: 0.470526
[dim=20] Time of forward = 0.486413sec.
AIC: 515.123
k: 19

[dim=40] time: 0.140194
[dim=39] time: 0.191201
[dim=38] time: 0.242513
[dim=37] time: 0.28801
[dim=36] time: 0.339997
[dim=35] time: 0.379732
[dim=34] time: 0.437962
[dim=33] time: 0.476189
[dim=32] time: 0.513704
[dim=31] time: 0.558618
[dim=30] time: 0.596237
[dim=29] time: 0.628609
[dim=28] time: 0.662071
[dim=27] time: 0.70029
[dim=26] time: 0.727332
[dim=25] time: 0.752435
[dim=24] time: 0.774718
[dim=23] time: 0.797902
[dim=22] time: 0.83565
[dim=21] time: 0.856181
[dim=20] time: 0.876282
[dim=19] time: 0.895679
[dim=18] time: 0.913251
[dim=17] Time of backward = 0.930543sec.
AIC: 514.357
k: 18
